40
0 1 0.63 0.19
0 2 0.7 0.24
0 3 0.47 0.15
0 4 0.76 0.31
0 5 0.55 0.19
0 6 0.52 0.1
0 7 0.54 0.26
0 8 0.68 0.2
0 9 0.68 0.25
0 10 0.56 0.25
0 11 0.66 0.24
0 12 0.63 0.17
0 13 0.5 0.26
0 14 0.72 0.27
0 15 0.6 0.11
0 16 0.84 0.21
0 17 0.54 0.23
0 18 0.23 0.22
0 19 0.38 0.22
0 20 0.66 0.22
0 21 0.4 0.19
0 22 0.41 0.17
0 23 0.44 0.2
0 24 0.56 0.09
0 25 0.74 0.11
0 26 0.32 0.02
0 27 0.4 0.21
0 28 0.58 0.25
0 29 0.69 0.25
0 30 0.56 0.24
0 31 0.57 0.22
0 32 0.69 0.14
0 33 0.52 0.24
0 34 0.53 0.21
0 35 0.51 0.22
0 36 0.66 0.08
0 37 0.44 0.09
0 38 0.6 0.2
0 39 0.32 0.22
1 2 0.74 0.23
1 3 0.36 0.3
1 4 0.83 0.28
1 5 0.47 0.23
1 6 0.68 0.29
1 7 0.71 0.1
1 8 0.5 0.18
1 9 0.52 0.24
1 10 0.67 0.32
1 11 0.52 0.16
1 12 0.54 0.16
1 13 0.52 0.18
1 14 0.64 0.22
1 15 0.34 0.08
1 16 0.56 0.33
1 17 0.68 0.28
1 18 0.46 0.35
1 19 0.64 0.22
1 20 0.39 0.2
1 21 0.78 0.22
1 22 0.86 0.14
1 23 0.68 0.12
1 24 0.74 0.22
1 25 0.8 0.24
1 26 0.8 0.17
1 27 0.66 0.22
1 28 0.66 0.06
1 29 0.63 0.22
1 30 0.76 0.2
1 31 0.44 0.14
1 32 0.54 0.21
1 33 0.34 0.32
1 34 0.76 0.14
1 35 0.63 0.3
1 36 0.75 0.23
1 37 0.44 0.22
1 38 0.62 0.28
1 39 0.44 0.26
2 3 0.84 0.35
2 4 0.45 0.31
2 5 0.4 0.14
2 6 0.55 0.21
2 7 0.55 0.21
2 8 0.56 0.1
2 9 0.6 0.27
2 10 0.5 0.3
2 11 0.66 0.27
2 12 0.67 0.27
2 13 0.69 0.24
2 14 0.47 0.28
2 15 0.4 0.23
2 16 0.72 0.32
2 17 0.71 0.29
2 18 0.48 0.18
2 19 0.58 0.21
2 20 0.74 0.12
2 21 0.68 0.16
2 22 0.58 0.21
2 23 0.36 0.11
2 24 0.41 0.24
2 25 0.66 0.26
2 26 0.71 0.22
2 27 0.79 0.21
2 28 0.31 0.17
2 29 0.83 0.16
2 30 0.69 0.19
2 31 0.58 0.25
2 32 0.37 0.22
2 33 0.75 0.26
2 34 0.5 0.12
2 35 0.66 0.3
2 36 0.67 0.16
2 37 0.53 0.24
2 38 0.52 0.27
2 39 0.47 0.28
3 4 0.5 0.29
3 5 0.78 0.23
3 6 0.46 0.25
3 7 0.68 0.25
3 8 0.48 0.27
3 9 0.62 0.1
3 10 0.53 0.25
3 11 0.64 0.19
3 12 0.66 0.21
3 13 0.54 0.3
3 14 0.48 0.12
3 15 0.53 0.22
3 16 0.62 0.21
3 17 0.48 0.18
3 18 0.7 0.23
3 19 0.54 0.29
3 20 0.58 0.28
3 21 0.44 0.24
3 22 0.66 0.28
3 23 0.67 0.26
3 24 0.5 0.13
3 25 0.53 0.11
3 26 0.79 0.13
3 27 0.72 0.25
3 28 0.64 0.28
3 29 0.65 0.31
3 30 0.48 0.33
3 31 0.7 0.21
3 32 0.66 0.25
3 33 0.64 0.31
3 34 0.44 0.25
3 35 0.67 0.31
3 36 0.59 0.19
3 37 0.48 0.13
3 38 0.76 0.18
3 39 0.54 0.25
4 5 0.6 0.22
4 6 0.74 0.39
4 7 0.83 0.26
4 8 0.48 0.34
4 9 0.4 0.19
4 10 0.3 0.22
4 11 0.44 0.25
4 12 0.54 0.35
4 13 0.65 0.26
4 14 0.62 0.21
4 15 0.78 0.2
4 16 0.68 0.44
4 17 0.62 0.27
4 18 0.78 0.13
4 19 0.78 0.34
4 20 0.67 0.36
4 21 0.7 0.33
4 22 0.74 0.14
4 23 0.64 0.24
4 24 0.8 0.32
4 25 0.46 0.34
4 26 0.44 0.29
4 27 0.62 0.34
4 28 0.69 0.3
4 29 0.58 0.28
4 30 0.62 0.21
4 31 0.72 0.23
4 32 0.43 0.3
4 33 0.67 0.21
4 34 0.73 0.32
4 35 0.7 0.32
4 36 0.4 0.35
4 37 0.74 0.32
4 38 0.56 0.35
4 39 0.63 0.37
5 6 0.32 0.17
5 7 0.63 0.21
5 8 0.57 0.24
5 9 0.2 0.16
5 10 0.44 0.16
5 11 0.68 0.27
5 12 0.62 0.18
5 13 0.7 0.28
5 14 0.46 0.18
5 15 0.66 0.26
5 16 0.41 0.22
5 17 0.7 0.24
5 18 0.42 0.3
5 19 0.51 0.3
5 20 0.68 0.26
5 21 0.59 0.26
5 22 0.54 0.32
5 23 0.44 0.23
5 24 0.61 0.1
5 25 0.56 0.12
5 26 0.49 0.17
5 27 0.54 0.22
5 28 0.54 0.17
5 29 0.44 0.3
5 30 0.56 0.31
5 31 0.49 0.25
5 32 0.5 0.23
5 33 0.78 0.3
5 34 0.54 0.17
5 35 0.42 0.16
5 36 0.32 0.23
5 37 0.46 0.1
5 38 0.61 0.29
5 39 0.38 0.2
6 7 0.55 0.29
6 8 0.5 0.28
6 9 0.52 0.33
6 10 0.57 0.31
6 11 0.57 0.34
6 12 0.51 0.24
6 13 0.76 0.36
6 14 0.5 0.35
6 15 0.76 0.21
6 16 0.47 0.3
6 17 0.55 0.33
6 18 0.74 0.29
6 19 0.2 0.15
6 20 0.6 0.26
6 21 0.31 0.25
6 22 0.48 0.27
6 23 0.61 0.25
6 24 0.72 0.19
6 25 0.6 0.21
6 26 0.78 0.12
6 27 0.61 0.31
6 28 0.66 0.31
6 29 0.7 0.31
6 30 0.73 0.33
6 31 0.66 0.32
6 32 0.44 0.19
6 33 0.7 0.21
6 34 0.74 0.31
6 35 0.46 0.32
6 36 0.5 0.18
6 37 0.65 0.19
6 38 0.62 0.3
6 39 0.65 0.3
7 8 0.62 0.14
7 9 0.43 0.18
7 10 0.58 0.31
7 11 0.55 0.06
7 12 0.6 0.14
7 13 0.28 0.12
7 14 0.4 0.2
7 15 0.66 0.15
7 16 0.65 0.31
7 17 0.58 0.22
7 18 0.75 0.25
7 19 0.4 0.16
7 20 0.32 0.12
7 21 0.53 0.12
7 22 0.64 0.12
7 23 0.56 0.1
7 24 0.69 0.2
7 25 0.58 0.22
7 26 0.5 0.24
7 27 0.3 0.18
7 28 0.24 0.04
7 29 0.59 0.2
7 30 0.62 0.18
7 31 0.32 0.04
7 32 0.45 0.19
7 33 0.69 0.24
7 34 0.6 0.12
7 35 0.65 0.25
7 36 0.6 0.18
7 37 0.46 0.2
7 38 0.68 0.26
7 39 0.66 0.3
8 9 0.56 0.2
8 10 0.71 0.3
8 11 0.64 0.2
8 12 0.27 0.18
8 13 0.61 0.14
8 14 0.66 0.18
8 15 0.68 0.26
8 16 0.52 0.25
8 17 0.7 0.19
8 18 0.67 0.28
8 19 0.3 0.13
8 20 0.36 0.02
8 21 0.64 0.06
8 22 0.66 0.2
8 23 0.78 0.21
8 24 0.73 0.18
8 25 0.48 0.16
8 26 0.44 0.18
8 27 0.49 0.18
8 28 0.63 0.18
8 29 0.37 0.06
8 30 0.5 0.29
8 31 0.69 0.18
8 32 0.58 0.18
8 33 0.52 0.22
8 34 0.56 0.22
8 35 0.46 0.29
8 36 0.5 0.23
8 37 0.65 0.18
8 38 0.66 0.19
8 39 0.62 0.23
9 10 0.43 0.28
9 11 0.58 0.16
9 12 0.78 0.16
9 13 0.53 0.2
9 14 0.26 0.02
9 15 0.58 0.25
9 16 0.51 0.3
9 17 0.5 0.08
9 18 0.62 0.18
9 19 0.61 0.24
9 20 0.75 0.18
9 21 0.48 0.14
9 22 0.69 0.26
9 23 0.24 0.16
9 24 0.41 0.22
9 25 0.62 0.2
9 26 0.6 0.23
9 27 0.73 0.26
9 28 0.42 0.18
9 29 0.62 0.26
9 30 0.36 0.24
9 31 0.64 0.14
9 32 0.3 0.21
9 33 0.7 0.26
9 34 0.6 0.26
9 35 0.56 0.32
9 36 0.52 0.27
9 37 0.47 0.22
9 38 0.41 0.28
9 39 0.58 0.23
10 11 0.6 0.31
10 12 0.62 0.17
10 13 0.45 0.22
10 14 0.32 0.26
10 15 0.68 0.32
10 16 0.68 0.24
10 17 0.56 0.26
10 18 0.48 0.35
10 19 0.68 0.21
10 20 0.52 0.32
10 21 0.69 0.36
10 22 0.46 0.34
10 23 0.45 0.29
10 24 0.62 0.16
10 25 0.5 0.14
10 26 0.36 0.23
10 27 0.6 0.23
10 28 0.48 0.27
10 29 0.59 0.24
10 30 0.42 0.36
10 31 0.62 0.33
10 32 0.13 0.12
10 33 0.58 0.36
10 34 0.43 0.28
10 35 0.61 0.26
10 36 0.7 0.18
10 37 0.59 0.16
10 38 0.62 0.13
10 39 0.54 0.23
11 12 0.46 0.2
11 13 0.83 0.18
11 14 0.46 0.18
11 15 0.46 0.13
11 16 0.68 0.32
11 17 0.65 0.24
11 18 0.53 0.19
11 19 0.48 0.22
11 20 0.28 0.18
11 21 0.26 0.17
11 22 0.64 0.18
11 23 0.46 0.16
11 24 0.4 0.2
11 25 0.6 0.22
11 26 0.8 0.22
11 27 0.42 0.22
11 28 0.5 0.1
11 29 0.52 0.26
11 30 0.54 0.24
11 31 0.34 0.02
11 32 0.7 0.25
11 33 0.54 0.22
11 34 0.67 0.18
11 35 0.45 0.19
11 36 0.36 0.24
11 37 0.64 0.2
11 38 0.51 0.32
11 39 0.62 0.27
12 13 0.43 0.22
12 14 0.52 0.14
12 15 0.42 0.24
12 16 0.54 0.2
12 17 0.7 0.15
12 18 0.4 0.28
12 19 0.56 0.26
12 20 0.63 0.2
12 21 0.71 0.24
12 22 0.47 0.26
12 23 0.57 0.16
12 24 0.74 0.08
12 25 0.54 0.1
12 26 0.4 0.15
12 27 0.62 0.2
12 28 0.36 0.1
12 29 0.64 0.17
12 30 0.73 0.24
12 31 0.42 0.18
12 32 0.52 0.05
12 33 0.65 0.28
12 34 0.51 0.18
12 35 0.64 0.26
12 36 0.3 0.11
12 37 0.58 0.08
12 38 0.4 0.3
12 39 0.7 0.16
13 14 0.49 0.22
13 15 0.38 0.23
13 16 0.78 0.3
13 17 0.73 0.28
13 18 0.64 0.34
13 19 0.68 0.27
13 20 0.6 0.16
13 21 0.69 0.2
13 22 0.46 0.22
13 23 0.5 0.22
13 24 0.67 0.18
13 25 0.49 0.2
13 26 0.76 0.24
13 27 0.58 0.2
13 28 0.38 0.16
13 29 0.6 0.08
13 30 0.73 0.3
13 31 0.6 0.16
13 32 0.32 0.17
13 33 0.86 0.26
13 34 0.62 0.19
13 35 0.57 0.22
13 36 0.73 0.2
13 37 0.38 0.18
13 38 0.55 0.28
13 39 0.58 0.24
14 15 0.84 0.27
14 16 0.56 0.28
14 17 0.24 0.06
14 18 0.62 0.2
14 19 0.36 0.22
14 20 0.52 0.16
14 21 0.72 0.12
14 22 0.64 0.28
14 23 0.5 0.18
14 24 0.67 0.2
14 25 0.36 0.18
14 26 0.56 0.25
14 27 0.58 0.28
14 28 0.16 0.16
14 29 0.36 0.24
14 30 0.54 0.26
14 31 0.58 0.16
14 32 0.45 0.19
14 33 0.46 0.28
14 34 0.52 0.24
14 35 0.57 0.34
14 36 0.52 0.25
14 37 0.38 0.2
14 38 0.46 0.3
14 39 0.76 0.21
15 16 0.8 0.28
15 17 0.65 0.3
15 18 0.58 0.29
15 19 0.88 0.26
15 20 0.62 0.27
15 21 0.68 0.27
15 22 0.62 0.06
15 23 0.34 0.16
15 24 0.51 0.16
15 25 0.74 0.18
15 26 0.7 0.09
15 27 0.5 0.26
15 28 0.68 0.14
15 29 0.76 0.2
15 30 0.54 0.24
15 31 0.46 0.11
15 32 0.66 0.21
15 33 0.68 0.31
15 34 0.51 0.2
15 35 0.47 0.24
15 36 0.72 0.15
15 37 0.46 0.16
15 38 0.51 0.27
15 39 0.28 0.27
16 17 0.46 0.22
16 18 0.82 0.32
16 19 0.67 0.28
16 20 0.42 0.23
16 21 0.5 0.27
16 22 0.58 0.31
16 23 0.61 0.21
16 24 0.44 0.12
16 25 0.42 0.1
16 26 0.76 0.19
16 27 0.62 0.24
16 28 0.41 0.27
16 29 0.74 0.31
16 30 0.58 0.29
16 31 0.66 0.3
16 32 0.71 0.25
16 33 0.68 0.32
16 34 0.5 0.24
16 35 0.6 0.3
16 36 0.66 0.25
16 37 0.63 0.12
16 38 0.76 0.34
16 39 0.52 0.24
17 18 0.61 0.26
17 19 0.6 0.28
17 20 0.37 0.17
17 21 0.66 0.18
17 22 0.6 0.34
17 23 0.55 0.24
17 24 0.72 0.14
17 25 0.56 0.12
17 26 0.44 0.21
17 27 0.34 0.25
17 28 0.4 0.22
17 29 0.6 0.25
17 30 0.58 0.32
17 31 0.66 0.22
17 32 0.5 0.2
17 33 0.48 0.34
17 34 0.76 0.26
17 35 0.77 0.32
17 36 0.4 0.26
17 37 0.58 0.14
17 38 0.7 0.35
17 39 0.66 0.26
18 19 0.6 0.36
18 20 0.54 0.28
18 21 0.63 0.32
18 22 0.64 0.23
18 23 0.66 0.29
18 24 0.59 0.2
18 25 0.6 0.22
18 26 0.55 0.24
18 27 0.54 0.32
18 28 0.51 0.29
18 29 0.52 0.28
18 30 0.33 0.28
18 31 0.48 0.21
18 32 0.52 0.23
18 33 0.53 0.08
18 34 0.76 0.3
18 35 0.44 0.22
18 36 0.7 0.29
18 37 0.29 0.2
18 38 0.49 0.28
18 39 0.55 0.34
19 20 0.56 0.11
19 21 0.51 0.15
19 22 0.52 0.2
19 23 0.59 0.1
19 24 0.62 0.2
19 25 0.4 0.18
19 26 0.7 0.24
19 27 0.6 0.2
19 28 0.52 0.16
19 29 0.58 0.19
19 30 0.58 0.18
19 31 0.72 0.2
19 32 0.57 0.31
19 33 0.82 0.31
19 34 0.77 0.24
19 35 0.52 0.26
19 36 0.64 0.26
19 37 0.65 0.2
19 38 0.42 0.26
19 39 0.68 0.32
20 21 0.5 0.04
20 22 0.81 0.22
20 23 0.54 0.21
20 24 0.37 0.2
20 25 0.52 0.18
20 26 0.56 0.2
20 27 0.62 0.2
20 28 0.56 0.16
20 29 0.49 0.08
20 30 0.46 0.28
20 31 0.48 0.16
20 32 0.65 0.2
20 33 0.39 0.2
20 34 0.56 0.24
20 35 0.53 0.31
20 36 0.36 0.25
20 37 0.67 0.2
20 38 0.6 0.21
20 39 0.34 0.25
21 22 0.48 0.24
21 23 0.65 0.22
21 24 0.48 0.24
21 25 0.83 0.22
21 26 0.72 0.21
21 27 0.68 0.24
21 28 0.76 0.16
21 29 0.64 0.12
21 30 0.42 0.3
21 31 0.6 0.16
21 32 0.56 0.24
21 33 0.62 0.24
21 34 0.86 0.24
21 35 0.46 0.28
21 36 0.62 0.27
21 37 0.58 0.24
21 38 0.63 0.25
21 39 0.65 0.22
22 23 0.58 0.1
22 24 0.44 0.22
22 25 0.38 0.24
22 26 0.3 0.15
22 27 0.48 0.2
22 28 0.48 0.16
22 29 0.54 0.14
22 30 0.5 0.18
22 31 0.82 0.16
22 32 0.59 0.26
22 33 0.54 0.31
22 34 0.5 0.24
22 35 0.77 0.18
22 36 0.48 0.21
22 37 0.63 0.22
22 38 0.68 0.21
22 39 0.58 0.31
23 24 0.17 0.17
23 25 0.56 0.19
23 26 0.36 0.18
23 27 0.55 0.1
23 28 0.52 0.06
23 29 0.48 0.22
23 30 0.6 0.08
23 31 0.55 0.14
23 32 0.32 0.21
23 33 0.55 0.26
23 34 0.62 0.14
23 35 0.32 0.26
23 36 0.66 0.16
23 37 0.47 0.17
23 38 0.17 0.16
23 39 0.51 0.32
24 25 0.56 0.02
24 26 0.53 0.07
24 27 0.48 0.12
24 28 0.52 0.16
24 29 0.6 0.24
24 30 0.47 0.25
24 31 0.38 0.18
24 32 0.49 0.13
24 33 0.5 0.2
24 34 0.64 0.16
24 35 0.49 0.18
24 36 0.62 0.13
24 37 0.3 0.0
24 38 0.34 0.22
24 39 0.68 0.16
25 26 0.68 0.09
25 27 0.78 0.14
25 28 0.52 0.18
25 29 0.72 0.22
25 30 0.64 0.27
25 31 0.58 0.2
25 32 0.38 0.15
25 33 0.74 0.22
25 34 0.68 0.14
25 35 0.59 0.2
25 36 0.24 0.15
25 37 0.49 0.02
25 38 0.4 0.24
25 39 0.66 0.14
26 27 0.69 0.19
26 28 0.4 0.23
26 29 0.4 0.23
26 30 0.7 0.26
26 31 0.52 0.2
26 32 0.46 0.12
26 33 0.6 0.26
26 34 0.64 0.19
26 35 0.68 0.2
26 36 0.44 0.06
26 37 0.61 0.07
26 38 0.53 0.22
26 39 0.64 0.23
27 28 0.48 0.16
27 29 0.29 0.12
27 30 0.69 0.18
27 31 0.62 0.2
27 32 0.68 0.24
27 33 0.56 0.3
27 34 0.58 0.24
27 35 0.62 0.23
27 36 0.74 0.25
27 37 0.7 0.12
27 38 0.38 0.1
27 39 0.72 0.28
28 29 0.52 0.24
28 30 0.38 0.14
28 31 0.56 0.08
28 32 0.61 0.15
28 33 0.62 0.28
28 34 0.36 0.08
28 35 0.41 0.29
28 36 0.36 0.21
28 37 0.22 0.16
28 38 0.44 0.22
28 39 0.6 0.26
29 30 0.85 0.3
29 31 0.58 0.24
29 32 0.46 0.12
29 33 0.5 0.2
29 34 0.5 0.26
29 35 0.67 0.3
29 36 0.64 0.17
29 37 0.68 0.24
29 38 0.44 0.2
29 39 0.48 0.17
30 31 0.56 0.22
30 32 0.55 0.29
30 33 0.74 0.28
30 34 0.45 0.22
30 35 0.67 0.28
30 36 0.74 0.24
30 37 0.6 0.25
30 38 0.77 0.24
30 39 0.48 0.4
31 32 0.61 0.23
31 33 0.37 0.2
31 34 0.7 0.16
31 35 0.79 0.21
31 36 0.62 0.22
31 37 0.62 0.18
31 38 0.64 0.3
31 39 0.68 0.29
32 33 0.62 0.31
32 34 0.3 0.19
32 35 0.56 0.29
32 36 0.6 0.06
32 37 0.63 0.13
32 38 0.49 0.25
32 39 0.5 0.11
33 34 0.59 0.24
33 35 0.65 0.14
33 36 0.58 0.32
33 37 0.6 0.2
33 38 0.72 0.27
33 39 0.46 0.32
34 35 0.45 0.26
34 36 0.66 0.13
34 37 0.58 0.16
34 38 0.69 0.3
34 39 0.56 0.28
35 36 0.74 0.26
35 37 0.19 0.18
35 38 0.24 0.13
35 39 0.19 0.18
36 37 0.58 0.13
36 38 0.64 0.28
36 39 0.7 0.17
37 38 0.43 0.22
37 39 0.38 0.16
38 39 0.43 0.31
